; printing sygus problem  

(set-logic LIA)
(declare-var x Int)

(declare-var y Int)

(synth-fun __SYNTHFUN_inv((x Int)(y Int)) Int
((NTInt Int)(NTbool Bool))
((NTInt Int (x y 0 1 (- NTInt) (+ NTInt NTInt) (- NTInt NTInt) (ite NTbool NTInt NTInt) ))
(NTbool Bool ((not NTbool) (and NTbool NTbool) (or NTbool NTbool) (ite NTbool NTbool NTbool) (= NTInt NTInt) (< NTInt NTInt) (> NTInt NTInt) ))
)
)

(constraint (=> (and (= x 11) (= y 45)) (= (__SYNTHFUN_inv x y ) 1)))
(constraint (=> (and (= x 1) (= y 26)) (= (__SYNTHFUN_inv x y ) 3)))
(constraint (=> (and (= x 39) (= y 29)) (= (__SYNTHFUN_inv x y ) 1)))
(constraint (=> (and (= x 1) (= y 36)) (= (__SYNTHFUN_inv x y ) 3)))
(constraint (=> (and (= x 15) (= y 12)) (= (__SYNTHFUN_inv x y ) 1)))
(constraint (=> (and (= x 28) (= y 38)) (= (__SYNTHFUN_inv x y ) 1)))
(constraint (=> (and (= x 12) (= y 14)) (= (__SYNTHFUN_inv x y ) 1)))
(constraint (=> (and (= x 37) (= y 1)) (= (__SYNTHFUN_inv x y ) 3)))
(constraint (=> (and (= x 40) (= y 29)) (= (__SYNTHFUN_inv x y ) 1)))
(constraint (=> (and (= x 33) (= y 29)) (= (__SYNTHFUN_inv x y ) 1)))
(constraint (=> (and (= x 1) (= y 33)) (= (__SYNTHFUN_inv x y ) 3)))
(constraint (=> (and (= x 34) (= y 39)) (= (__SYNTHFUN_inv x y ) 1)))
(constraint (=> (and (= x 1) (= y 24)) (= (__SYNTHFUN_inv x y ) 3)))
(constraint (=> (and (= x 5) (= y 7)) (= (__SYNTHFUN_inv x y ) 1)))
(constraint (=> (and (= x 1) (= y 4)) (= (__SYNTHFUN_inv x y ) 3)))
(constraint (=> (and (= x 7) (= y 21)) (= (__SYNTHFUN_inv x y ) 1)))
(constraint (=> (and (= x 1) (= y 5)) (= (__SYNTHFUN_inv x y ) 3)))
(constraint (=> (and (= x 50) (= y 33)) (= (__SYNTHFUN_inv x y ) 1)))
(constraint (=> (and (= x 24) (= y 41)) (= (__SYNTHFUN_inv x y ) 1)))
(constraint (=> (and (= x 41) (= y 33)) (= (__SYNTHFUN_inv x y ) 1)))
(constraint (=> (and (= x 1) (= y 38)) (= (__SYNTHFUN_inv x y ) 3)))
(constraint (=> (and (= x 1) (= y 9)) (= (__SYNTHFUN_inv x y ) 3)))
(constraint (=> (and (= x 10) (= y 1)) (= (__SYNTHFUN_inv x y ) 3)))
(constraint (=> (and (= x 13) (= y 10)) (= (__SYNTHFUN_inv x y ) 1)))
(constraint (=> (and (= x 35) (= y 36)) (= (__SYNTHFUN_inv x y ) 1)))
(constraint (=> (and (= x 25) (= y 35)) (= (__SYNTHFUN_inv x y ) 1)))
(constraint (=> (and (= x 25) (= y 3)) (= (__SYNTHFUN_inv x y ) 1)))
(constraint (=> (and (= x 1) (= y 39)) (= (__SYNTHFUN_inv x y ) 3)))
(constraint (=> (and (= x 46) (= y 28)) (= (__SYNTHFUN_inv x y ) 1)))
(constraint (=> (and (= x 39) (= y 27)) (= (__SYNTHFUN_inv x y ) 1)))
(constraint (=> (and (= x 7) (= y 1)) (= (__SYNTHFUN_inv x y ) 3)))
(constraint (=> (and (= x 41) (= y 15)) (= (__SYNTHFUN_inv x y ) 1)))
(constraint (=> (and (= x 7) (= y 42)) (= (__SYNTHFUN_inv x y ) 1)))
(constraint (=> (and (= x 2) (= y 10)) (= (__SYNTHFUN_inv x y ) 1)))
(constraint (=> (and (= x 3) (= y 21)) (= (__SYNTHFUN_inv x y ) 1)))
(constraint (=> (and (= x 30) (= y 38)) (= (__SYNTHFUN_inv x y ) 1)))
(constraint (=> (and (= x 20) (= y 10)) (= (__SYNTHFUN_inv x y ) 1)))
(constraint (=> (and (= x 26) (= y 1)) (= (__SYNTHFUN_inv x y ) 3)))
(constraint (=> (and (= x 24) (= y 46)) (= (__SYNTHFUN_inv x y ) 1)))
(constraint (=> (and (= x 38) (= y 29)) (= (__SYNTHFUN_inv x y ) 1)))
(constraint (=> (and (= x 49) (= y 2)) (= (__SYNTHFUN_inv x y ) 1)))
(constraint (=> (and (= x 1) (= y 16)) (= (__SYNTHFUN_inv x y ) 3)))
(constraint (=> (and (= x 48) (= y 14)) (= (__SYNTHFUN_inv x y ) 1)))
(constraint (=> (and (= x 49) (= y 5)) (= (__SYNTHFUN_inv x y ) 1)))
(constraint (=> (and (= x 3) (= y 19)) (= (__SYNTHFUN_inv x y ) 1)))
(constraint (=> (and (= x 46) (= y 24)) (= (__SYNTHFUN_inv x y ) 1)))
(constraint (=> (and (= x 50) (= y 1)) (= (__SYNTHFUN_inv x y ) 3)))
(constraint (=> (and (= x 13) (= y 15)) (= (__SYNTHFUN_inv x y ) 1)))
(constraint (=> (and (= x 29) (= y 45)) (= (__SYNTHFUN_inv x y ) 1)))
(constraint (=> (and (= x 8) (= y 10)) (= (__SYNTHFUN_inv x y ) 1)))
(constraint (=> (and (= x 21) (= y 28)) (= (__SYNTHFUN_inv x y ) 1)))
(constraint (=> (and (= x 27) (= y 35)) (= (__SYNTHFUN_inv x y ) 1)))
(check-synth)


